NAME : n60w200.005.618.tour
COMMENT : Length = 618
COMMENT : Found by LKH [Keld Helsgaun] Tue May  2 05:47:35 2017
TYPE : TOUR
DIMENSION : 61
TOUR_SECTION
1
24
47
5
54
25
32
57
37
56
55
33
38
20
9
39
2
10
17
59
19
21
51
35
45
6
42
11
27
15
8
50
36
3
7
49
58
28
30
48
22
26
46
52
4
29
13
14
23
53
16
41
34
60
31
44
18
43
12
40
61
-1
EOF
